p cnf 25 13
-15 -20 1 23 12 -16 17 -8 6 25 -10 -13 9 -4 24 7 2 -14 -19 11 0
24 2 9 3 0
-11 -21 -13 -7 23 -8 0
17 10 0
-6 -14 23 0
14 19 -5 25 0
16 5 0
-1 -6 15 0
2 17 -22 19 -3 18 6 0
21 9 19 8 0
25 5 0
-3 -2 -5 13 11 -25 -19 -17 20 -12 -10 -4 -23 -21 16 14 15 6 18 7 -8 -1 22 24 -9 0
25 4 14 -11 -21 -18 16 -3 9 -13 -10 -5 24 12 -1 23 8 0
